NAME: n100q30C.tsp, 100 nodes, semilla 222
COMMENT: Problema aleatorio de norma euclidea
DIMENSION: 100
CAPACITY: 30
EDGE_WEIGHT_TYPE: EUC_2D
NODE_COORD_SECTION
1   0.0000   0.0000
2 302.0000 264.0000
3 -191.0000 -343.0000
4  64.0000 431.0000
5 -477.0000 -298.0000
6 -270.0000 -492.0000
7 -388.0000 287.0000
8  50.0000 274.0000
9 -378.0000 498.0000
10 186.0000  32.0000
11 -455.0000 -299.0000
12 -480.0000 -417.0000
13 -216.0000 112.0000
14  41.0000 -213.0000
15  95.0000 -480.0000
16 -488.0000 208.0000
17 -376.0000 -203.0000
18  97.0000 -161.0000
19 -370.0000 325.0000
20 -77.0000 -263.0000
21 -479.0000 -310.0000
22 -115.0000 -237.0000
23  84.0000 -246.0000
24 -240.0000 242.0000
25 147.0000 -289.0000
26 -387.0000 273.0000
27 417.0000  54.0000
28   9.0000 -111.0000
29 -367.0000 243.0000
30 198.0000 -351.0000
31 -205.0000 205.0000
32 -244.0000 -58.0000
33 -15.0000 157.0000
34 -136.0000 -284.0000
35 -222.0000  61.0000
36 483.0000 333.0000
37 -249.0000 -81.0000
38 134.0000 -230.0000
39  85.0000 -261.0000
40   4.0000  24.0000
41 -446.0000 333.0000
42  90.0000  52.0000
43 275.0000 414.0000
44 -206.0000 371.0000
45 181.0000 -382.0000
46 -146.0000 -45.0000
47 475.0000 -405.0000
48 -189.0000 -394.0000
49 384.0000 500.0000
50 -493.0000  -8.0000
51 -51.0000 -280.0000
52 -448.0000  94.0000
53 -379.0000 -453.0000
54 462.0000  33.0000
55 -450.0000 -215.0000
56 -392.0000 380.0000
57 283.0000 158.0000
58 -362.0000 402.0000
59 184.0000 -331.0000
60 -467.0000  28.0000
61 -370.0000 -378.0000
62 264.0000 -238.0000
63 -480.0000 -350.0000
64 -339.0000 399.0000
65 437.0000 -472.0000
66 -61.0000 170.0000
67 -426.0000 453.0000
68 403.0000 -86.0000
69 -110.0000 -281.0000
70 396.0000 -71.0000
71 -383.0000 -269.0000
72 -212.0000 253.0000
73 430.0000 496.0000
74 -173.0000 -469.0000
75 480.0000 -228.0000
76 114.0000 116.0000
77  66.0000 389.0000
78 460.0000 301.0000
79 354.0000 -142.0000
80 -245.0000 314.0000
81 415.0000 -373.0000
82 383.0000 163.0000
83 -409.0000  14.0000
84 235.0000 -55.0000
85 439.0000 -436.0000
86 -456.0000 474.0000
87 -76.0000  19.0000
88 -82.0000 -317.0000
89 -326.0000 341.0000
90 304.0000  54.0000
91 163.0000 -495.0000
92 -185.0000 221.0000
93 -70.0000 272.0000
94  90.0000 -323.0000
95 -167.0000 -157.0000
96 -299.0000 -330.0000
97 -57.0000 396.0000
98 -393.0000 290.0000
99 -330.0000 -14.0000
100 176.0000 132.0000
DISPLAY_DATA_SECTION:
 1  250  250
 2  401  382
 3  154   78
 4  282  465
 5   11  101
 6  115    4
 7   56  393
 8  275  387
 9   61  499
10  343  266
11   22  100
12   10   41
13  142  306
14  270  143
15  297   10
16    6  354
17   62  148
18  298  169
19   65  412
20  211  118
21   10   95
22  192  131
23  292  127
24  130  371
25  323  105
26   56  386
27  458  277
28  254  194
29   66  371
30  349   74
31  147  352
32  128  221
33  242  328
34  182  108
35  139  280
36  491  416
37  125  209
38  317  135
39  292  119
40  252  262
41   27  416
42  295  276
43  387  457
44  147  435
45  340   59
46  177  227
47  487   47
48  155   53
49  442  500
50    3  246
51  224  110
52   26  297
53   60   23
54  481  266
55   25  142
56   54  440
57  391  329
58   69  451
59  342   84
60   16  264
61   65   61
62  382  131
63   10   75
64   80  449
65  468   14
66  219  335
67   37  476
68  451  207
69  195  109
70  448  214
71   58  115
72  144  376
73  465  498
74  163   15
75  490  136
76  307  308
77  283  444
78  480  400
79  427  179
80  127  407
81  457   63
82  441  331
83   45  257
84  367  222
85  469   32
86   22  487
87  212  259
88  209   91
89   87  420
90  402  277
91  331    2
92  157  360
93  215  386
94  295   88
95  166  171
96  100   85
97  221  448
98   53  395
99   85  243
100  338  316
DEMAND_SECTION
1 3
2 0
3 3
4 5
5 5
6 -9
7 -7
8 -10
9 9
10 7
11 -10
12 -4
13 4
14 -6
15 -2
16 -6
17 2
18 8
19 7
20 0
21 -10
22 3
23 5
24 -1
25 1
26 7
27 10
28 5
29 2
30 0
31 -1
32 -2
33 5
34 3
35 2
36 0
37 0
38 1
39 4
40 -3
41 -3
42 8
43 9
44 2
45 -2
46 6
47 -5
48 -6
49 2
50 -6
51 -5
52 -8
53 0
54 5
55 4
56 7
57 -8
58 8
59 -5
60 0
61 0
62 3
63 8
64 -4
65 -7
66 5
67 0
68 -4
69 -5
70 -5
71 -4
72 4
73 5
74 -9
75 -1
76 8
77 -9
78 2
79 -5
80 -1
81 -6
82 0
83 -10
84 2
85 9
86 -7
87 -2
88 5
89 9
90 -3
91 -2
92 5
93 -10
94 2
95 -2
96 -8
97 1
98 4
99 5
100 -6
EOF